 %instance num  1
%circuitX= [3, 3, 5, 5] ;
%circuitY= [3, 5, 3, 5] ;
%num_circuits= 4 ;
%width= 8 ;
%%%%%%%%%%%%%%
%instance num  2
circuitX= [3, 3, 3, 3, 3] ;
circuitY= [3, 4, 5, 6, 9] ;
num_circuits= 5 ;
width= 9 ;
%%%%%%%%%%%%%%
%instance num  3
%circuitX= [3, 3, 3, 3, 4, 4] ;
%circuitY= [3, 4, 6, 7, 4, 6] ;
%num_circuits= 6 ;
%width= 10 ;
%%%%%%%%%%%%%%
%instance num  4
%circuitX= [3, 3, 3, 3, 5, 5, 8] ;
%circuitY= [3, 4, 5, 6, 3, 4, 4] ;
%num_circuits= 7 ;
%width= 11 ;
%%%%%%%%%%%%%%
%instance num  5
%circuitX= [3, 3, 3, 3, 3, 3, 3, 6] ;
%circuitY= [3, 4, 5, 6, 7, 8, 9, 3] ;
%num_circuits= 8 ;
%width= 12 ;
%%%%%%%%%%%%%%
%instance num  6
%circuitX= [3, 3, 3, 3, 3, 3, 4, 4, 7] ;
%circuitY= [3, 4, 5, 6, 7, 8, 3, 4, 6] ;
%num_circuits= 9 ;
%width= 13 ;
%%%%%%%%%%%%%%
%instance num  7
%circuitX= [3, 3, 3, 3, 3, 3, 3, 5, 5] ;
%circuitY= [3, 4, 5, 6, 7, 8, 9, 4, 10] ;
%num_circuits= 9 ;
%width= 14 ;
%%%%%%%%%%%%%%
%instance num  8
%circuitX= [3, 3, 3, 3, 3, 3, 3, 3, 3, 6] ;
%circuitY= [3, 4, 5, 6, 7, 8, 9, 12, 15, 3] ;
%num_circuits= 10 ;
%width= 15 ;
%%%%%%%%%%%%%%
%instance num  9
%circuitX= [3, 3, 3, 3, 3, 3, 3, 3, 4, 7] ;
%circuitY= [3, 4, 5, 6, 7, 8, 10, 12, 7, 9] ;
%num_circuits= 10 ;
%width= 16 ;
%%%%%%%%%%%%%%
%instance num  10
%circuitX= [3, 3, 3, 3, 3, 3, 3, 4, 4, 4, 7, 7] ;
%circuitY= [3, 4, 5, 6, 7, 8, 9, 3, 8, 14, 3, 6] ;
%num_circuits= 12 ;
%width= 17 ;
%%%%%%%%%%%%%%
%instance num  11
%circuitX= [3, 3, 3, 3, 3, 3, 3, 3, 4, 4, 4, 4, 5, 5, 5, 5] ;
%circuitY= [3, 4, 5, 6, 7, 8, 10, 11, 3, 4, 5, 6, 3, 4, 5, 6] ;
%num_circuits= 16 ;
%width= 18 ;
%%%%%%%%%%%%%%
%instance num  12
%circuitX= [3, 3, 3, 3, 3, 3, 3, 3, 3, 3, 3, 4, 4, 4] ;
%circuitY= [3, 4, 5, 6, 7, 8, 9, 10, 11, 13, 19, 5, 6, 8] ;
%num_circuits= 14 ;
%width= 19 ;
%%%%%%%%%%%%%%
%instance num  13
%circuitX= [3, 3, 3, 3, 3, 3, 3, 3, 3, 3, 4, 4, 4, 4] ;
%circuitY= [3, 4, 5, 6, 7, 8, 9, 10, 11, 17, 3, 9, 11, 17] ;
%num_circuits= 14 ;
%width= 20 ;
%%%%%%%%%%%%%%
%instance num  14
%circuitX= [3, 3, 3, 3, 3, 3, 3, 3, 3, 3, 4, 4, 4, 5, 5] ;
%circuitY= [3, 4, 5, 6, 7, 8, 9, 10, 14, 18, 4, 6, 11, 6, 15] ;
%num_circuits= 15 ;
%width= 21 ;
%%%%%%%%%%%%%%
%instance num  15
%circuitX= [3, 3, 3, 3, 3, 3, 3, 3, 3, 3, 3, 3, 3, 4, 4, 6] ;
%circuitY= [3, 4, 5, 6, 7, 8, 9, 10, 11, 12, 13, 14, 22, 3, 19, 4] ;
%num_circuits= 16 ;
%width= 22 ;
%%%%%%%%%%%%%%
%instance num  16
%circuitX= [3, 3, 3, 3, 3, 3, 3, 3, 3, 3, 3, 3, 4, 4, 4, 4, 4, 4, 6] ;
%circuitY= [3, 4, 5, 6, 7, 8, 9, 10, 11, 12, 14, 20, 3, 4, 6, 10, 11, 12, 3] ;
%num_circuits= 19 ;
%width= 23 ;
%%%%%%%%%%%%%%
%instance num  17
%circuitX= [3, 3, 3, 3, 3, 3, 3, 3, 3, 3, 3, 3, 4, 4, 4, 4, 5, 5] ;
%circuitY= [3, 4, 5, 6, 7, 8, 9, 10, 12, 14, 18, 24, 3, 4, 5, 12, 8, 16] ;
%num_circuits= 18 ;
%width= 24 ;
%%%%%%%%%%%%%%
%instance num  18
%circuitX= [3, 3, 3, 3, 3, 3, 3, 3, 3, 3, 3, 3, 3, 3, 3, 4, 4, 4, 6] ;
%circuitY= [3, 4, 5, 6, 7, 8, 9, 10, 11, 13, 14, 17, 18, 19, 25, 5, 7, 13, 3] ;
%num_circuits= 19 ;
%width= 25 ;
%%%%%%%%%%%%%%
%instance num  19
%circuitX= [3, 3, 3, 3, 3, 3, 3, 3, 3, 3, 3, 3, 3, 3, 3, 4, 4, 4, 4, 4, 4, 4] ;
%circuitY= [3, 4, 5, 6, 7, 8, 9, 10, 11, 12, 14, 15, 16, 17, 19, 3, 4, 5, 7, 8, 11, 14] ;
%num_circuits= 22 ;
%width= 26 ;
%%%%%%%%%%%%%%
%instance num  20
%circuitX= [3, 3, 3, 3, 3, 3, 3, 3, 3, 3, 3, 3, 3, 4, 4, 4, 4, 4, 4, 4, 4] ;
%circuitY= [3, 4, 5, 6, 7, 8, 9, 10, 11, 12, 19, 20, 21, 3, 4, 6, 7, 8, 14, 19, 20] ;
%num_circuits= 21 ;
%width= 27 ;
%%%%%%%%%%%%%%
%instance num  21
%circuitX= [3, 3, 3, 3, 3, 3, 3, 3, 3, 3, 3, 3, 3, 4, 4, 4, 4, 4, 4, 5, 5, 5] ;
%circuitY= [3, 4, 5, 6, 7, 8, 9, 10, 11, 16, 17, 21, 23, 3, 4, 5, 8, 13, 23, 6, 9, 13] ;
%num_circuits= 22 ;
%width= 28 ;
%%%%%%%%%%%%%%
%instance num  22
%circuitX= [3, 3, 3, 3, 3, 3, 3, 3, 3, 3, 3, 3, 4, 4, 4, 4, 4, 4, 4, 4, 4, 5, 5, 5] ;
%circuitY= [3, 4, 5, 6, 7, 8, 9, 10, 11, 15, 18, 20, 3, 4, 5, 6, 7, 9, 15, 18, 20, 4, 8, 17] ;
%num_circuits= 24 ;
%width= 29 ;
%%%%%%%%%%%%%%
%instance num  23
%circuitX= [3, 3, 3, 3, 3, 3, 3, 3, 3, 3, 3, 3, 3, 3, 4, 4, 4, 4, 4, 11] ;
%circuitY= [3, 4, 5, 6, 7, 8, 9, 10, 11, 13, 14, 16, 19, 25, 3, 4, 6, 8, 9, 30] ;
%num_circuits= 20 ;
%width= 30 ;
%%%%%%%%%%%%%%
%instance num  24
%circuitX= [3, 3, 3, 3, 3, 3, 3, 3, 3, 3, 3, 3, 3, 3, 4, 4, 4, 4, 12] ;
%circuitY= [3, 4, 5, 6, 7, 8, 9, 10, 11, 12, 13, 14, 22, 31, 3, 7, 8, 13, 31] ;
%num_circuits= 19 ;
%width= 31 ;
%%%%%%%%%%%%%%
%instance num  25
%circuitX= [3, 3, 3, 3, 3, 3, 3, 3, 3, 3, 3, 3, 3, 3, 3, 3, 3, 3, 3, 4, 4, 4, 4, 4, 4, 4, 4] ;
%circuitY= [3, 4, 5, 6, 7, 8, 9, 10, 11, 12, 13, 14, 15, 18, 22, 23, 24, 25, 27, 3, 4, 5, 6, 7, 10, 11, 18] ;
%num_circuits= 27 ;
%width= 32 ;
%%%%%%%%%%%%%%
%instance num  26
%circuitX= [3, 3, 3, 3, 3, 3, 3, 3, 3, 3, 3, 3, 3, 3, 3, 4, 4, 4, 4, 4, 4, 4, 7] ;
%circuitY= [3, 4, 5, 6, 7, 8, 9, 10, 13, 14, 15, 17, 24, 30, 33, 3, 4, 6, 10, 12, 14, 17, 33] ;
%num_circuits= 23 ;
%width= 33 ;
%%%%%%%%%%%%%%
%instance num  27
%circuitX= [3, 3, 3, 3, 3, 3, 3, 3, 3, 3, 3, 3, 3, 3, 3, 3, 4, 4, 4, 4, 12] ;
%circuitY= [3, 4, 5, 6, 7, 8, 9, 10, 11, 12, 13, 14, 21, 22, 25, 34, 4, 5, 11, 14, 34] ;
%num_circuits= 21 ;
%width= 34 ;
%%%%%%%%%%%%%%
%instance num  28
%circuitX= [3, 3, 3, 3, 3, 3, 3, 3, 3, 3, 3, 4, 4, 4, 4, 4, 4, 4, 4, 4, 4, 14] ;
%circuitY= [3, 4, 5, 6, 7, 8, 9, 10, 12, 19, 22, 3, 4, 5, 6, 7, 8, 12, 17, 20, 23, 35] ;
%num_circuits= 22 ;
%width= 35 ;
%%%%%%%%%%%%%%
%instance num  29
%circuitX= [3, 3, 3, 3, 3, 3, 3, 3, 3, 3, 3, 3, 3, 3, 3, 4, 4, 4, 5, 5, 5, 5, 12] ;
%circuitY= [3, 4, 5, 6, 7, 8, 9, 10, 11, 12, 14, 15, 16, 24, 36, 3, 11, 22, 3, 4, 14, 15, 36] ;
%num_circuits= 23 ;
%width= 36 ;
%%%%%%%%%%%%%%
%instance num  30
%circuitX= [3, 3, 3, 3, 3, 3, 3, 3, 3, 3, 3, 3, 3, 3, 4, 4, 4, 4, 4, 4, 4, 5, 5, 5, 5, 5, 12] ;
%circuitY= [3, 4, 5, 6, 7, 8, 9, 11, 12, 13, 14, 17, 18, 21, 3, 4, 5, 6, 10, 22, 24, 3, 4, 6, 10, 14, 37] ;
%num_circuits= 27 ;
%width= 37 ;
%%%%%%%%%%%%%%
%instance num  31
%circuitX= [3, 3, 3, 3, 3, 3, 3, 3, 3, 3, 4, 4, 4, 4, 4, 4, 4, 4, 24] ;
%circuitY= [3, 4, 5, 6, 7, 8, 9, 10, 11, 13, 3, 5, 6, 8, 11, 12, 15, 16, 38] ;
%num_circuits= 19 ;
%width= 38 ;
%%%%%%%%%%%%%%
%instance num  32
%circuitX= [3, 3, 3, 3, 3, 3, 3, 3, 3, 3, 4, 4, 4, 4, 4, 4, 4, 4, 4, 5, 5, 5, 5, 5, 5, 5, 5, 5, 15] ;
%circuitY= [3, 4, 5, 6, 7, 8, 9, 10, 11, 15, 3, 4, 5, 6, 8, 9, 12, 15, 16, 3, 4, 5, 6, 8, 10, 11, 13, 18, 39] ;
%num_circuits= 29 ;
%width= 39 ;
%%%%%%%%%%%%%%
%instance num  33
%circuitX= [3, 3, 3, 3, 3, 3, 3, 3, 3, 3, 3, 4, 4, 4, 5, 5, 5, 5, 5, 22] ;
%circuitY= [3, 4, 5, 6, 7, 8, 9, 10, 12, 16, 40, 4, 14, 22, 3, 4, 8, 12, 13, 40] ;
%num_circuits= 20 ;
%width= 40 ;
%%%%%%%%%%%%%%
%instance num  34
%circuitX= [3, 3, 2, 2, 3, 3, 2, 2, 4, 4, 5, 2, 2, 3, 3, 4, 4, 2, 2, 5, 5, 4, 4, 2, 2] ;
%circuitY= [11, 13, 9, 7, 9, 7, 11, 13, 11, 13, 3, 11, 2, 11, 2, 5, 6, 12, 1, 3, 13, 12, 1, 5, 6] ;
%num_circuits= 25 ;
%width= 15 ;
%%%%%%%%%%%%%%
%instance num  35
%circuitX= [2, 3, 7, 4, 5, 2, 1, 1, 5, 3, 3, 5, 1, 4, 2, 4, 4, 2, 2, 2, 4, 4, 4, 2, 2] ;
%circuitY= [11, 2, 10, 8, 9, 7, 4, 6, 4, 8, 1, 5, 3, 12, 6, 2, 11, 10, 3, 11, 3, 26, 8, 3, 6] ;
%num_circuits= 25 ;
%width= 15 ;
%%%%%%%%%%%%%%
%instance num  36
%circuitX= [7, 7, 1, 1, 2, 2, 2, 2, 1, 1, 6, 6, 2, 2, 3, 1, 1, 3, 3, 2, 2, 3, 3, 3, 3] ;
%circuitY= [12, 7, 7, 5, 3, 6, 7, 5, 3, 6, 12, 9, 12, 7, 10, 4, 5, 16, 5, 4, 5, 10, 9, 16, 5] ;
%num_circuits= 25 ;
%width= 15 ;
%%%%%%%%%%%%%%
%instance num  37
%circuitX= [5, 5, 8, 8, 13, 11, 11, 5, 5, 3, 3, 11, 11, 4, 4, 7, 5, 5, 3, 3, 4, 4, 2, 2, 5, 5, 3, 3] ;
%circuitY= [7, 14, 14, 4, 21, 7, 14, 14, 4, 18, 21, 17, 4, 7, 5, 6, 18, 3, 7, 5, 18, 3, 12, 6, 18, 21, 17, 4] ;
%num_circuits= 28 ;
%width= 30 ;
%%%%%%%%%%%%%%
%instance num  38
%circuitX= [6, 2, 10, 4, 4, 7, 11, 6, 2, 6, 10, 11, 4, 7, 4, 7, 7, 3, 6, 9, 1, 4, 6, 9, 2, 8, 3, 7, 5] ;
%circuitY= [18, 12, 7, 23, 1, 7, 4, 5, 7, 11, 19, 5, 2, 5, 2, 12, 13, 6, 10, 16, 4, 10, 24, 9, 1, 5, 5, 25, 21] ;
%num_circuits= 29 ;
%width= 30 ;
%%%%%%%%%%%%%%
%instance num  39
%circuitX= [9, 9, 9, 9, 4, 4, 1, 1, 4, 3, 3, 12, 12, 14, 2, 2, 8, 8, 12, 12, 6, 6, 2, 2, 3, 3, 3, 3] ;
%circuitY= [24, 8, 11, 17, 24, 8, 6, 5, 17, 6, 5, 5, 13, 14, 14, 2, 3, 9, 14, 2, 3, 9, 5, 13, 18, 14, 16, 12] ;
%num_circuits= 28 ;
%width= 30 ;
%%%%%%%%%%%%%​
